NAME : mtspf.pid17354.gtsp.214748529.tour
COMMENT : Length = 214748529
COMMENT : Found by LKH [Keld Helsgaun] Sat Jan  4 21:41:21 2025
TYPE : TOUR
DIMENSION : 130
TOUR_SECTION
1
51
52
53
54
9
87
88
89
90
27
28
29
30
2
73
74
71
72
7
59
60
61
62
6
126
123
124
125
10
66
63
64
65
37
38
35
36
39
40
41
42
130
127
128
129
81
82
79
80
46
43
44
45
47
48
49
50
84
85
86
83
18
15
16
17
55
56
57
58
107
108
109
110
97
98
95
96
118
115
116
117
11
12
13
14
120
121
122
119
3
91
92
93
94
104
105
106
103
69
70
67
68
22
19
20
21
5
114
111
112
113
23
24
25
26
31
32
33
34
8
78
75
76
77
4
100
101
102
99
-1
EOF
